
Gurobi 8.1.1 (win64, Python) logging started 01/12/20 22:39:15

Academic license - for non-commercial use only

Gurobi 8.1.1 (win64, Python) logging started 01/12/20 22:47:46

Academic license - for non-commercial use only

Gurobi 8.1.1 (win64, Python) logging started 01/12/20 23:16:31

Academic license - for non-commercial use only

Gurobi 8.1.1 (win64, Python) logging started 01/12/20 23:21:44

Academic license - for non-commercial use only

Gurobi 8.1.1 (win64, Python) logging started 01/13/20 08:32:01

Academic license - for non-commercial use only

Gurobi 8.1.1 (win64, Python) logging started 01/13/20 14:08:49

Academic license - for non-commercial use only

Gurobi 8.1.1 (win64, Python) logging started 01/13/20 14:32:05

Academic license - for non-commercial use only

Gurobi 8.1.1 (win64, Python) logging started 01/13/20 14:38:51

Academic license - for non-commercial use only

Gurobi 8.1.1 (win64, Python) logging started 01/13/20 14:45:33

Academic license - for non-commercial use only

Gurobi 8.1.1 (win64, Python) logging started 01/13/20 15:13:37

Academic license - for non-commercial use only

Gurobi 8.1.1 (win64, Python) logging started 01/13/20 15:16:42

Academic license - for non-commercial use only

Gurobi 8.1.1 (win64, Python) logging started 01/13/20 15:21:40

Academic license - for non-commercial use only

Gurobi 8.1.1 (win64, Python) logging started 01/13/20 15:23:23

Academic license - for non-commercial use only

Gurobi 8.1.1 (win64, Python) logging started 01/13/20 15:34:33

Academic license - for non-commercial use only

Gurobi 8.1.1 (win64, Python) logging started 01/13/20 15:44:35

Academic license - for non-commercial use only
